m = 6; % number of couriers
n = 8; % number of packages

l = [7, 8, 17, 16, 16, 13]; % maximum carriable weight per courier
s = [7, 3, 5, 9, 5, 9, 4, 3]; % weight of each package

D = % distance matrix 
	 [| 3, 12, 10, 12, 4, 9, 9, 7, 6
	 | 4, 10, 10, 5, 6, 3, 7, 10, 12
	 | 10, 12, 5, 4, 8, 4, 7, 8, 12
	 | 11, 8, 3, 12, 7, 9, 5, 5, 11
	 | 8, 3, 10, 5, 4, 11, 7, 6, 11
	 | 7, 9, 7, 11, 6, 11, 9, 8, 11
	 | 6, 5, 7, 5, 9, 9, 5, 8, 8
	 | 10, 3, 11, 6, 6, 3, 7, 8, 10
	 | 9, 5, 8, 10, 3, 10, 9, 5, 10
	 |];